c Generated map
c Size: 9 * 9, weights in range: 1 to 10, walls: True, with ratio 0.1
c dim 6 of 8
c
p sp 81 118
c graph contains 81 nodes and 118 arcs
c
a 1 10 9
a 10 1 9
a 1 2 5
a 2 1 5
a 2 11 3
a 11 2 3
a 2 3 7
a 3 2 7
a 3 12 2
a 12 3 2
a 3 4 9
a 4 3 9
a 4 13 9
a 13 4 9
a 6 15 7
a 15 6 7
a 6 7 9
a 7 6 9
a 7 16 6
a 16 7 6
a 7 8 7
a 8 7 7
a 8 17 9
a 17 8 9
a 8 9 8
a 9 8 8
a 9 18 10
a 18 9 10
a 10 19 8
a 19 10 8
a 10 11 6
a 11 10 6
a 11 20 1
a 20 11 1
a 11 12 4
a 12 11 4
a 12 21 1
a 21 12 1
a 12 13 4
a 13 12 4
a 13 22 5
a 22 13 5
a 15 24 7
a 24 15 7
a 15 16 3
a 16 15 3
a 16 25 5
a 25 16 5
a 16 17 9
a 17 16 9
a 17 26 2
a 26 17 2
a 17 18 4
a 18 17 4
a 19 28 3
a 28 19 3
a 19 20 2
a 20 19 2
a 20 29 5
a 29 20 5
a 20 21 7
a 21 20 7
a 21 30 3
a 30 21 3
a 21 22 9
a 22 21 9
a 22 31 1
a 31 22 1
a 22 23 4
a 23 22 4
a 23 32 8
a 32 23 8
a 23 24 9
a 24 23 9
a 24 33 2
a 33 24 2
a 24 25 7
a 25 24 7
a 25 34 3
a 34 25 3
a 25 26 3
a 26 25 3
a 26 35 2
a 35 26 2
a 28 37 3
a 37 28 3
a 28 29 5
a 29 28 5
a 29 38 4
a 38 29 4
a 29 30 3
a 30 29 3
a 30 39 6
a 39 30 6
a 30 31 10
a 31 30 10
a 31 40 8
a 40 31 8
a 31 32 10
a 32 31 10
a 32 41 5
a 41 32 5
a 32 33 5
a 33 32 5
a 33 42 6
a 42 33 6
a 33 34 6
a 34 33 6
a 34 43 8
a 43 34 8
a 34 35 7
a 35 34 7
a 35 36 10
a 36 35 10
a 36 45 6
a 45 36 6
a 37 38 3
a 38 37 3
a 38 47 6
a 47 38 6
a 38 39 6
a 39 38 6
a 39 48 7
a 48 39 7
a 39 40 6
a 40 39 6
a 40 49 8
a 49 40 8
a 40 41 5
a 41 40 5
a 41 50 6
a 50 41 6
a 41 42 5
a 42 41 5
a 42 43 9
a 43 42 9
a 43 52 8
a 52 43 8
a 45 54 2
a 54 45 2
a 47 56 7
a 56 47 7
a 47 48 2
a 48 47 2
a 48 57 6
a 57 48 6
a 48 49 4
a 49 48 4
a 49 50 7
a 50 49 7
a 50 59 3
a 59 50 3
a 52 61 10
a 61 52 10
a 52 53 2
a 53 52 2
a 53 62 9
a 62 53 9
a 53 54 8
a 54 53 8
a 54 63 4
a 63 54 4
a 56 65 6
a 65 56 6
a 56 57 7
a 57 56 7
a 57 66 5
a 66 57 5
a 59 68 4
a 68 59 4
a 59 60 9
a 60 59 9
a 60 69 5
a 69 60 5
a 60 61 10
a 61 60 10
a 61 70 5
a 70 61 5
a 61 62 2
a 62 61 2
a 62 71 6
a 71 62 6
a 62 63 10
a 63 62 10
a 63 72 3
a 72 63 3
a 64 73 6
a 73 64 6
a 64 65 8
a 65 64 8
a 65 74 7
a 74 65 7
a 65 66 8
a 66 65 8
a 66 75 2
a 75 66 2
a 66 67 10
a 67 66 10
a 67 76 10
a 76 67 10
a 67 68 2
a 68 67 2
a 68 77 8
a 77 68 8
a 68 69 10
a 69 68 10
a 69 78 5
a 78 69 5
a 69 70 4
a 70 69 4
a 70 79 10
a 79 70 10
a 70 71 1
a 71 70 1
a 71 80 10
a 80 71 10
a 71 72 9
a 72 71 9
a 72 81 6
a 81 72 6
a 73 74 7
a 74 73 7
a 74 75 1
a 75 74 1
a 75 76 5
a 76 75 5
a 76 77 1
a 77 76 1
a 77 78 8
a 78 77 8
a 78 79 2
a 79 78 2
a 79 80 9
a 80 79 9
a 80 81 9
a 81 80 9
